Maximize
 obj: 0 X1
Subject To
 c1:
  + 4510 X1 + 8120 X2 + 4570 X3 + 370 X4 + 4430 X5 + 710 X6 + 4480 X7 + 5510 X8
  + 9420 X9 + 7130 X10
  <= 24620
 obj1:
  + 316 X1 + 285 X2 + 241 X3 + 485 X4 + 376 X5 + 54 X6 + 571 X7 + 971 X8
  + 516 X9 + 430 X10
  >= 1
 obj2:
  + 409 X1 + 151 X2 + 587 X3 + 632 X4 + 614 X5 + 412 X6 + 108 X7 + 872 X8
  + 265 X9 + 622 X10
  >= 2
 obj3:
  + 671 X1 + 359 X2 + 209 X3 + 535 X4 + 385 X5 + 845 X6 + 884 X7 + 462 X8
  + 651 X9 + 773 X10
  >= 3
 obj4:
  + 497 X1 + 967 X2 + 58 X3 + 737 X4 + 451 X5 + 434 X6 + 791 X7 + 21 X8
  + 404 X9 + 307 X10
  >= 4
Binary
 X1
 X2
 X3
 X4
 X5
 X6
 X7
 X8
 X9
 X10
End
